NAME          DCAP_2_4_3_300_SS247
ROWS
 N  OBJ
 L  CON1
 L  CON2
 L  CON3
 L  CON4
 L  CON5
 L  CON6
 L  CON7
 L  CON8
 L  CON9
 L  CON10
 L  CON11
 L  CON12
 E  CON13
 E  CON14
 E  CON15
 E  CON16
 E  CON17
 E  CON18
 E  CON19
 E  CON20
 E  CON21
 E  CON22
 E  CON23
 E  CON24
COLUMNS
    x[1,1]    OBJ       6.180167      CON1      1.000000    
    x[1,1]    CON7      -1.000000     CON8      -1.000000   
    x[1,1]    CON9      -1.000000   
    x[1,2]    OBJ       6.563535      CON2      1.000000    
    x[1,2]    CON8      -1.000000     CON9      -1.000000   
    x[1,3]    OBJ       7.443064      CON3      1.000000    
    x[1,3]    CON9      -1.000000   
    x[2,1]    OBJ       6.732585      CON4      1.000000    
    x[2,1]    CON10     -1.000000     CON11     -1.000000   
    x[2,1]    CON12     -1.000000   
    x[2,2]    OBJ       5.039546      CON5      1.000000    
    x[2,2]    CON11     -1.000000     CON12     -1.000000   
    x[2,3]    OBJ       6.054841      CON6      1.000000    
    x[2,3]    CON12     -1.000000   
    MARKER    'MARKER'                'INTORG'
    u[1,1]    OBJ       48.076654     CON1      -1.000000   
    u[1,2]    OBJ       20.066487     CON2      -1.000000   
    u[1,3]    OBJ       32.230043     CON3      -1.000000   
    u[2,1]    OBJ       49.996186     CON4      -1.000000   
    u[2,2]    OBJ       49.466655     CON5      -1.000000   
    u[2,3]    OBJ       27.484319     CON6      -1.000000   
    y[1,1,1]  OBJ       8.266096      CON7      1.178471    
    y[1,1,1]  CON13     1.000000    
    y[1,1,2]  OBJ       8.977053      CON8      0.594721    
    y[1,1,2]  CON14     1.000000    
    y[1,1,3]  OBJ       9.823774      CON9      1.257202    
    y[1,1,3]  CON15     1.000000    
    y[1,2,1]  OBJ       5.181743      CON7      1.189276    
    y[1,2,1]  CON16     1.000000    
    y[1,2,2]  OBJ       6.897753      CON8      1.098361    
    y[1,2,2]  CON17     1.000000    
    y[1,2,3]  OBJ       6.533280      CON9      1.228901    
    y[1,2,3]  CON18     1.000000    
    y[1,3,1]  OBJ       6.339599      CON7      0.999457    
    y[1,3,1]  CON19     1.000000    
    y[1,3,2]  OBJ       9.903472      CON8      0.940083    
    y[1,3,2]  CON20     1.000000    
    y[1,3,3]  OBJ       9.402865      CON9      1.231442    
    y[1,3,3]  CON21     1.000000    
    y[1,4,1]  OBJ       6.889766      CON7      1.063557    
    y[1,4,1]  CON22     1.000000    
    y[1,4,2]  OBJ       8.094374      CON8      1.175576    
    y[1,4,2]  CON23     1.000000    
    y[1,4,3]  OBJ       7.948040      CON9      1.147652    
    y[1,4,3]  CON24     1.000000    
    y[2,1,1]  OBJ       5.965743      CON10     1.178471    
    y[2,1,1]  CON13     1.000000    
    y[2,1,2]  OBJ       9.442908      CON11     0.594721    
    y[2,1,2]  CON14     1.000000    
    y[2,1,3]  OBJ       7.214791      CON12     1.257202    
    y[2,1,3]  CON15     1.000000    
    y[2,2,1]  OBJ       6.550861      CON10     1.189276    
    y[2,2,1]  CON16     1.000000    
    y[2,2,2]  OBJ       8.511040      CON11     1.098361    
    y[2,2,2]  CON17     1.000000    
    y[2,2,3]  OBJ       9.822064      CON12     1.228901    
    y[2,2,3]  CON18     1.000000    
    y[2,3,1]  OBJ       8.870679      CON10     0.999457    
    y[2,3,1]  CON19     1.000000    
    y[2,3,2]  OBJ       7.771881      CON11     0.940083    
    y[2,3,2]  CON20     1.000000    
    y[2,3,3]  OBJ       8.219280      CON12     1.231442    
    y[2,3,3]  CON21     1.000000    
    y[2,4,1]  OBJ       8.044853      CON10     1.063557    
    y[2,4,1]  CON22     1.000000    
    y[2,4,2]  OBJ       7.501715      CON11     1.175576    
    y[2,4,2]  CON23     1.000000    
    y[2,4,3]  OBJ       6.774042      CON12     1.147652    
    y[2,4,3]  CON24     1.000000    
    z[1,1]    OBJ       903.054221    CON13     1.000000    
    z[1,2]    OBJ       736.277848    CON14     1.000000    
    z[1,3]    OBJ       776.164232    CON15     1.000000    
    z[2,1]    OBJ       892.772663    CON16     1.000000    
    z[2,2]    OBJ       882.894684    CON17     1.000000    
    z[2,3]    OBJ       664.490506    CON18     1.000000    
    z[3,1]    OBJ       848.590208    CON19     1.000000    
    z[3,2]    OBJ       538.985347    CON20     1.000000    
    z[3,3]    OBJ       945.993577    CON21     1.000000    
    z[4,1]    OBJ       830.650673    CON22     1.000000    
    z[4,2]    OBJ       731.859976    CON23     1.000000    
    z[4,3]    OBJ       858.733170    CON24     1.000000    
    MARKER    'MARKER'                 'INTEND'
RHS
    RHS       CON1      -0.000000     CON2      -0.000000   
    RHS       CON3      -0.000000     CON4      -0.000000   
    RHS       CON5      -0.000000     CON6      -0.000000   
    RHS       CON7      -0.000000     CON8      -0.000000   
    RHS       CON9      -0.000000     CON10     -0.000000   
    RHS       CON11     -0.000000     CON12     -0.000000   
    RHS       CON13     1.000000      CON14     1.000000    
    RHS       CON15     1.000000      CON16     1.000000    
    RHS       CON17     1.000000      CON18     1.000000    
    RHS       CON19     1.000000      CON20     1.000000    
    RHS       CON21     1.000000      CON22     1.000000    
    RHS       CON23     1.000000      CON24     1.000000    
BOUNDS
 BV BOUND     u[1,1]  
 BV BOUND     u[1,2]  
 BV BOUND     u[1,3]  
 BV BOUND     u[2,1]  
 BV BOUND     u[2,2]  
 BV BOUND     u[2,3]  
 BV BOUND     y[1,1,1]
 BV BOUND     y[1,1,2]
 BV BOUND     y[1,1,3]
 BV BOUND     y[1,2,1]
 BV BOUND     y[1,2,2]
 BV BOUND     y[1,2,3]
 BV BOUND     y[1,3,1]
 BV BOUND     y[1,3,2]
 BV BOUND     y[1,3,3]
 BV BOUND     y[1,4,1]
 BV BOUND     y[1,4,2]
 BV BOUND     y[1,4,3]
 BV BOUND     y[2,1,1]
 BV BOUND     y[2,1,2]
 BV BOUND     y[2,1,3]
 BV BOUND     y[2,2,1]
 BV BOUND     y[2,2,2]
 BV BOUND     y[2,2,3]
 BV BOUND     y[2,3,1]
 BV BOUND     y[2,3,2]
 BV BOUND     y[2,3,3]
 BV BOUND     y[2,4,1]
 BV BOUND     y[2,4,2]
 BV BOUND     y[2,4,3]
 BV BOUND     z[1,1]  
 BV BOUND     z[1,2]  
 BV BOUND     z[1,3]  
 BV BOUND     z[2,1]  
 BV BOUND     z[2,2]  
 BV BOUND     z[2,3]  
 BV BOUND     z[3,1]  
 BV BOUND     z[3,2]  
 BV BOUND     z[3,3]  
 BV BOUND     z[4,1]  
 BV BOUND     z[4,2]  
 BV BOUND     z[4,3]  
ENDATA
